experiment/data/lkh-res/Vrp-Set-E-n76/Vrp-Set-E-n76-lkh/1.lkh1.log
PARAMETER_FILE = baseline_results/cvrp_lkh/Vrp-Set-E-n76/Vrp-Set-E-n76-lkh/1.lkh1.par
Reading PROBLEM_FILE: "baseline_results/cvrp_lkh/Vrp-Set-E-n76/Vrp-Set-E-n76-lkh/1.lkh1.vrp" ... done
ASCENT_CANDIDATES = 50
BACKBONE_TRIALS = 0
BACKTRACKING = NO
# BWTSP =
# CANDIDATE_FILE =
CANDIDATE_SET_TYPE = ALPHA
# DISTANCE =
DEPOT = 1
# EDGE_FILE =
EXCESS = 0.0131579
EXTERNAL_SALESMEN = 0
EXTRA_CANDIDATES = 0 
EXTRA_CANDIDATE_SET_TYPE = QUADRANT
GAIN23 = NO
GAIN_CRITERION = YES
INITIAL_PERIOD = 100
INITIAL_STEP_SIZE = 1
INITIAL_TOUR_ALGORITHM = WALK
# INITIAL_TOUR_FILE = 
INITIAL_TOUR_FRACTION = 1.000
# INPUT_TOUR_FILE = 
KICK_TYPE = 4
KICKS = 1
# MAX_BREADTH =
MAKESPAN = NO
MAX_CANDIDATES = 5 
MAX_SWAPS = 0
MAX_TRIALS = 10000
# MERGE_TOUR_FILE =
MOVE_TYPE = 5 SPECIAL
MTSP_MIN_SIZE = 1
MTSP_MAX_SIZE = 75
# MTSP_SOLUTION_FILE = 
# NONSEQUENTIAL_MOVE_TYPE = 5
# OPTIMUM =
OUTPUT_TOUR_FILE = baseline_results/cvrp_lkh/Vrp-Set-E-n76/Vrp-Set-E-n76-lkh/1.lkh1.tour
PATCHING_A = 1 
PATCHING_C = 0 
# PI_FILE = 
POPMUSIC_INITIAL_TOUR = NO
POPMUSIC_MAX_NEIGHBORS = 5
POPMUSIC_SAMPLE_SIZE = 10
POPMUSIC_SOLUTIONS = 50
POPMUSIC_TRIALS = 1
POPULATION_SIZE = 10
PRECISION = 100
PROBLEM_FILE = baseline_results/cvrp_lkh/Vrp-Set-E-n76/Vrp-Set-E-n76-lkh/1.lkh1.vrp
RECOMBINATION = IPT
RESTRICTED_SEARCH = YES
RUNS = 1
SALESMEN = 14
SCALE = 1
SEED = 1234
# SINTEF_SOLUTION_FILE = 
STOP_AT_OPTIMUM = YES
SUBGRADIENT = YES
# SUBPROBLEM_SIZE =
# SUBPROBLEM_TOUR_FILE = 
SUBSEQUENT_MOVE_TYPE = 5 SPECIAL
SUBSEQUENT_PATCHING = YES
# TIME_LIMIT =
# TOTAL_TIME_LIMIT =
# TOUR_FILE = 
TRACE_LEVEL = 1
VEHICLES = 14

Lower bound = 72409.0, Ascent time = 0.02 sec.
Cand.min = 5, Cand.avg = 5.0, Cand.max = 5
Preprocessing time = 0.02 sec.
* 1: Cost = 0_122718, Time = 0.02 sec. 
Writing OUTPUT_TOUR_FILE: "baseline_results/cvrp_lkh/Vrp-Set-E-n76/Vrp-Set-E-n76-lkh/1.lkh1.tour" ... done
* 2: Cost = 0_122681, Time = 0.04 sec. 
Writing OUTPUT_TOUR_FILE: "baseline_results/cvrp_lkh/Vrp-Set-E-n76/Vrp-Set-E-n76-lkh/1.lkh1.tour" ... done
* 3: Cost = 0_119669, Time = 0.04 sec. 
Writing OUTPUT_TOUR_FILE: "baseline_results/cvrp_lkh/Vrp-Set-E-n76/Vrp-Set-E-n76-lkh/1.lkh1.tour" ... done
* 4: Cost = 0_119311, Time = 0.06 sec. 
Writing OUTPUT_TOUR_FILE: "baseline_results/cvrp_lkh/Vrp-Set-E-n76/Vrp-Set-E-n76-lkh/1.lkh1.tour" ... done
* 5: Cost = 0_111433, Time = 0.07 sec. 
Writing OUTPUT_TOUR_FILE: "baseline_results/cvrp_lkh/Vrp-Set-E-n76/Vrp-Set-E-n76-lkh/1.lkh1.tour" ... done
* 7: Cost = 0_107433, Time = 0.12 sec. 
Writing OUTPUT_TOUR_FILE: "baseline_results/cvrp_lkh/Vrp-Set-E-n76/Vrp-Set-E-n76-lkh/1.lkh1.tour" ... done
* 8: Cost = 0_106795, Time = 0.13 sec. 
Writing OUTPUT_TOUR_FILE: "baseline_results/cvrp_lkh/Vrp-Set-E-n76/Vrp-Set-E-n76-lkh/1.lkh1.tour" ... done
* 12: Cost = 0_106740, Time = 0.18 sec. 
Writing OUTPUT_TOUR_FILE: "baseline_results/cvrp_lkh/Vrp-Set-E-n76/Vrp-Set-E-n76-lkh/1.lkh1.tour" ... done
* 16: Cost = 0_105628, Time = 0.22 sec. 
Writing OUTPUT_TOUR_FILE: "baseline_results/cvrp_lkh/Vrp-Set-E-n76/Vrp-Set-E-n76-lkh/1.lkh1.tour" ... done
* 17: Cost = 0_105236, Time = 0.22 sec. 
Writing OUTPUT_TOUR_FILE: "baseline_results/cvrp_lkh/Vrp-Set-E-n76/Vrp-Set-E-n76-lkh/1.lkh1.tour" ... done
* 29: Cost = 0_104948, Time = 0.29 sec. 
Writing OUTPUT_TOUR_FILE: "baseline_results/cvrp_lkh/Vrp-Set-E-n76/Vrp-Set-E-n76-lkh/1.lkh1.tour" ... done
* 61: Cost = 0_104823, Time = 0.53 sec. 
Writing OUTPUT_TOUR_FILE: "baseline_results/cvrp_lkh/Vrp-Set-E-n76/Vrp-Set-E-n76-lkh/1.lkh1.tour" ... done
* 84: Cost = 0_104694, Time = 0.71 sec. 
Writing OUTPUT_TOUR_FILE: "baseline_results/cvrp_lkh/Vrp-Set-E-n76/Vrp-Set-E-n76-lkh/1.lkh1.tour" ... done
* 110: Cost = 0_104616, Time = 0.86 sec. 
Writing OUTPUT_TOUR_FILE: "baseline_results/cvrp_lkh/Vrp-Set-E-n76/Vrp-Set-E-n76-lkh/1.lkh1.tour" ... done
* 251: Cost = 0_104556, Time = 1.81 sec. 
Writing OUTPUT_TOUR_FILE: "baseline_results/cvrp_lkh/Vrp-Set-E-n76/Vrp-Set-E-n76-lkh/1.lkh1.tour" ... done
* 268: Cost = 0_104403, Time = 1.97 sec. 
Writing OUTPUT_TOUR_FILE: "baseline_results/cvrp_lkh/Vrp-Set-E-n76/Vrp-Set-E-n76-lkh/1.lkh1.tour" ... done
* 294: Cost = 0_104354, Time = 2.14 sec. 
Writing OUTPUT_TOUR_FILE: "baseline_results/cvrp_lkh/Vrp-Set-E-n76/Vrp-Set-E-n76-lkh/1.lkh1.tour" ... done
* 324: Cost = 0_104236, Time = 2.37 sec. 
Writing OUTPUT_TOUR_FILE: "baseline_results/cvrp_lkh/Vrp-Set-E-n76/Vrp-Set-E-n76-lkh/1.lkh1.tour" ... done
* 423: Cost = 0_103921, Time = 2.93 sec. 
Writing OUTPUT_TOUR_FILE: "baseline_results/cvrp_lkh/Vrp-Set-E-n76/Vrp-Set-E-n76-lkh/1.lkh1.tour" ... done
* 428: Cost = 0_103803, Time = 2.94 sec. 
Writing OUTPUT_TOUR_FILE: "baseline_results/cvrp_lkh/Vrp-Set-E-n76/Vrp-Set-E-n76-lkh/1.lkh1.tour" ... done
* 614: Cost = 0_103731, Time = 4.19 sec. 
Writing OUTPUT_TOUR_FILE: "baseline_results/cvrp_lkh/Vrp-Set-E-n76/Vrp-Set-E-n76-lkh/1.lkh1.tour" ... done
* 860: Cost = 0_103535, Time = 5.96 sec. 
Writing OUTPUT_TOUR_FILE: "baseline_results/cvrp_lkh/Vrp-Set-E-n76/Vrp-Set-E-n76-lkh/1.lkh1.tour" ... done
* 2129: Cost = 0_103527, Time = 14.95 sec. 
Writing OUTPUT_TOUR_FILE: "baseline_results/cvrp_lkh/Vrp-Set-E-n76/Vrp-Set-E-n76-lkh/1.lkh1.tour" ... done
* 3201: Cost = 0_103113, Time = 22.78 sec. 
Writing OUTPUT_TOUR_FILE: "baseline_results/cvrp_lkh/Vrp-Set-E-n76/Vrp-Set-E-n76-lkh/1.lkh1.tour" ... done
* 3346: Cost = 0_103102, Time = 24.03 sec. 
Writing OUTPUT_TOUR_FILE: "baseline_results/cvrp_lkh/Vrp-Set-E-n76/Vrp-Set-E-n76-lkh/1.lkh1.tour" ... done
* 3380: Cost = 0_102963, Time = 24.25 sec. 
Writing OUTPUT_TOUR_FILE: "baseline_results/cvrp_lkh/Vrp-Set-E-n76/Vrp-Set-E-n76-lkh/1.lkh1.tour" ... done
Population:
  1: 0_102963
Run 1: Cost = 0_102963, Time = 69.40 sec. 

Successes/Runs = 0/1 
Cost.min = 102963, Cost.avg = 102963.00, Cost.max = 102963
Gap.min = 0.0000%, Gap.avg = 0.0000%, Gap.max = 0.0000%
Penalty.min = 0, Penalty.avg = 0.00, Penalty.max = 0
Trials.min = 10000, Trials.avg = 10000.0, Trials.max = 10000
Time.min = 69.40 sec., Time.avg = 69.40 sec., Time.max = 69.40 sec.
Time.total = 69.43 sec.
  Size.min = 4, Size.max = 8, Penalty = 0
  Cost.min = 2707, Cost.max = 10347, Cost.sum = 102963
Best CVRP solution:
  Cost = 0_102963

