experiment/data/lkh-res/Vrp-Set-E-n76/Vrp-Set-E-n76-lkh/1.lkh1.tour
NAME : 1.102963.tour
COMMENT : Length = 102963
COMMENT : Found by LKH-3 [Keld Helsgaun] Tue Apr  9 01:53:58 2024
TYPE : TOUR
DIMENSION : 89
TOUR_SECTION
1
75
22
70
62
29
69
80
36
15
12
54
81
18
41
10
13
85
33
51
19
56
26
40
84
52
17
50
25
45
4
78
5
31
3
7
82
58
16
38
21
71
61
72
37
83
20
60
67
66
8
86
63
23
65
43
34
87
64
24
57
42
44
2
74
89
59
39
11
32
73
79
49
48
6
30
46
88
53
28
14
55
9
27
77
68
47
35
76
-1
EOF
